(declare-fun var0 () String)
(assert (str.in.re var0 (re.++ (re.* (re.+ (str.to.re "b"))) (re.++ (re.* (re.+ (str.to.re "aaa"))) (re.++ (re.+ (re.* (str.to.re "9"))) (re.++ (re.+ (re.union (str.to.re "77") (str.to.re "88"))) (re.++ (re.* (re.+ (str.to.re "66"))) (re.++ (re.+ (re.+ (str.to.re "55"))) (re.++ (re.+ (re.+ (str.to.re "444"))) (re.++ (re.* (re.* (str.to.re "333"))) (re.++ (re.union (re.+ (str.to.re "1")) (re.* (str.to.re "22"))) (re.* (re.* (str.to.re "00"))))))))))))))
(assert (str.in.re var0 (re.++ (re.* (re.+ (str.to.re "fff"))) (re.++ (re.union (re.* (str.to.re "c")) (re.union (str.to.re "d") (str.to.re "e"))) (re.++ (re.+ (re.* (str.to.re "b"))) (re.++ (re.* (re.* (str.to.re "aaa"))) (re.++ (re.+ (re.* (str.to.re "99"))) (re.++ (re.+ (re.union (str.to.re "777") (str.to.re "888"))) (re.++ (re.+ (re.* (str.to.re "66"))) (re.++ (re.union (re.union (str.to.re "22") (str.to.re "3")) (re.union (str.to.re "4") (str.to.re "5"))) (re.++ (re.* (re.+ (str.to.re "111"))) (re.* (re.+ (str.to.re "000"))))))))))))))
(assert (str.in.re var0 (re.++ (re.union (re.+ (str.to.re "ddd")) (re.* (str.to.re "ee"))) (re.++ (re.union (re.+ (str.to.re "bb")) (re.* (str.to.re "c"))) (re.++ (re.* (re.+ (str.to.re "aa"))) (re.++ (re.* (re.* (str.to.re "9"))) (re.++ (re.+ (re.* (str.to.re "888"))) (re.++ (re.+ (re.union (str.to.re "6") (str.to.re "777"))) (re.++ (re.* (re.+ (str.to.re "5"))) (re.++ (re.union (re.* (str.to.re "3")) (re.* (str.to.re "444"))) (re.++ (re.* (re.* (str.to.re "222"))) (re.union (re.+ (str.to.re "000")) (re.* (str.to.re "11"))))))))))))))
(assert (str.in.re var0 (re.++ (re.union (re.union (str.to.re "eee") (str.to.re "fff")) (re.+ (str.to.re "gg"))) (re.++ (re.+ (re.union (str.to.re "cc") (str.to.re "d"))) (re.++ (re.union (re.+ (str.to.re "99")) (re.union (str.to.re "a") (str.to.re "b"))) (re.++ (re.* (re.+ (str.to.re "888"))) (re.++ (re.union (re.+ (str.to.re "66")) (re.+ (str.to.re "77"))) (re.++ (re.* (re.* (str.to.re "555"))) (re.++ (re.+ (re.union (str.to.re "33") (str.to.re "44"))) (re.++ (re.* (re.+ (str.to.re "2"))) (re.++ (re.+ (re.+ (str.to.re "11"))) (re.+ (re.* (str.to.re "000"))))))))))))))
(assert (str.in.re var0 (re.++ (re.* (re.* (str.to.re "f"))) (re.++ (re.+ (re.+ (str.to.re "ee"))) (re.++ (re.* (re.union (str.to.re "cc") (str.to.re "ddd"))) (re.++ (re.* (re.+ (str.to.re "bbb"))) (re.++ (re.union (re.+ (str.to.re "88")) (re.union (str.to.re "9") (str.to.re "a"))) (re.++ (re.+ (re.* (str.to.re "7"))) (re.++ (re.+ (re.* (str.to.re "6"))) (re.++ (re.* (re.union (str.to.re "44") (str.to.re "5"))) (re.++ (re.union (re.* (str.to.re "2")) (re.+ (str.to.re "3"))) (re.union (re.+ (str.to.re "000")) (re.+ (str.to.re "11"))))))))))))))
(assert (str.in.re var0 (re.++ (re.union (re.+ (str.to.re "fff")) (re.* (str.to.re "ggg"))) (re.++ (re.+ (re.+ (str.to.re "e"))) (re.++ (re.+ (re.union (str.to.re "c") (str.to.re "ddd"))) (re.++ (re.union (re.* (str.to.re "999")) (re.union (str.to.re "aa") (str.to.re "b"))) (re.++ (re.union (re.+ (str.to.re "77")) (re.* (str.to.re "888"))) (re.++ (re.+ (re.* (str.to.re "666"))) (re.++ (re.union (re.+ (str.to.re "4")) (re.+ (str.to.re "55"))) (re.++ (re.* (re.* (str.to.re "333"))) (re.++ (re.* (re.+ (str.to.re "22"))) (re.+ (re.union (str.to.re "0") (str.to.re "111"))))))))))))))
(check-sat)